
Gurobi 6.0.5 (win64) logging started 09/14/15 20:00:51


Gurobi 6.0.5 (win64) logging started 09/14/15 20:03:24


Gurobi 6.0.5 (win64) logging started 09/14/15 20:26:29


Gurobi 6.0.5 (win64) logging started 09/14/15 20:27:41

